<number of tasks>
50

<cycle time>
1000

<order strength>
0.599


<task times>
1 444
2 206
3 276
4 288
5 170
6 172
7 41
8 106
9 518
10 86
11 37
12 189
13 254
14 99
15 138
16 37
17 247
18 27
19 95
20 166
21 236
22 266
23 197
24 538
25 424
26 69
27 487
28 41
29 115
30 61
31 502
32 49
33 197
34 266
35 239
36 210
37 31
38 84
39 211
40 194
41 486
42 133
43 257
44 564
45 223
46 110
47 254
48 313
49 138
50 466

<precedence relations>
1,38
2,13
3,7
3,8
3,10
4,5
4,6
4,8
4,9
4,10
5,13
6,13
7,13
8,12
8,14
8,15
9,11
9,28
10,15
11,27
12,27
13,18
13,19
13,20
13,21
13,22
13,23
14,17
15,16
16,38
17,27
18,37
18,45
19,47
20,26
20,39
21,26
21,27
21,30
22,24
22,25
23,24
23,25
24,27
25,26
25,28
25,29
26,38
27,31
27,32
27,33
27,34
27,35
27,36
27,37
28,45
29,30
29,31
30,38
31,38
32,50
33,38
34,38
35,45
35,46
36,38
37,39
38,40
38,41
38,42
38,43
38,44
38,45
39,44
41,46
44,46
45,50
46,47
46,48
46,49
46,50

<end>
